165 156 3 132 85 187 5 55 33 45 143 123 72 73 129 86 108 150 106 157 54 10 15 126 64 46 121 164 166 30 116 181 161 62 110 29 16 192 104 98 39 113 136 170 142 155 11 69 196 184 195 79 144 111 37 160 6 52 66 167 78 151 122 53 65 140 145 193 178 168 163 105 198 191 70 148 89 47 117 20 67 135 34 99 180 176 9 40 124 162 76 139 84 12 114 138 173 7 58 185 28 199 36 130 183 21 152 197 128 26 13 103 182 92 63 81 147 169 146 93 109 71 149 189 131 0 87 96 190 22 60 41 118 2 95 186 8 19 127 49 94 48 1 31 82 88 17 153 158 51 38 133 32 77 91 172 179 90 134 24 43 97 57 42 23 50 188 101 115 68 177 174 14 102 61 4 83 125 27 119 141 120 154 159 171 107 194 56 25 75 74 44 80 137 18 112 100 59 175 35 

